32      4       
10      10      10      10      
0       0       0       0       0       10      2       4       8       9       11      16      28      29      30      31      
1       1       0       1       1       2       3       14      
8       0       1       6       4       5       5       15      22      23      27      
4       0       3       3       4       6       7       18      21      22      23      25      
7       10      2       3       0       2       6       25      
1       0       1       6       4       3       7       18      21      
3       4       0       3       5       2       10      20      
10      3       7       0       1       4       13      18      23      24      
9       4       3       0       6       3       14      22      26      
8       3       4       4       0       2       12      19      
2       1       0       1       7       2       18      26      
2       5       0       5       5       1       13      
7       0       4       4       3       1       17      
3       8       4       0       2       1       17      
3       3       4       0       3       1       24      
3       0       8       6       6       1       26      
5       0       4       4       3       1       32      
8       2       0       5       6       1       32      
2       3       5       0       3       1       32      
10      5       4       0       6       1       32      
1       2       0       2       2       1       32      
7       0       4       2       4       1       32      
6       6       0       6       3       1       32      
8       4       0       6       7       1       32      
3       4       4       0       3       1       32      
2       5       7       0       5       1       32      
5       0       5       6       4       1       32      
2       6       0       3       2       1       32      
2       3       0       2       3       1       32      
7       2       0       6       4       1       32      
8       0       2       4       6       1       32      
0       0       0       0       0       0       
